p cnf 100 140
-85 -48 -96 0
-53 -2 55 0
84 -87 -57 0
-96 -97 74 0
30 20 6 0
85 95 -33 0
87 -29 -23 0
94 44 5 0
-38 -50 28 0
-84 30 69 0
-16 1 -7 0
-60 83 88 0
1 26 -53 0
-97 -14 -35 0
-94 -26 10 0
41 -97 -92 0
-48 28 47 0
-36 28 -25 0
93 62 63 0
93 -18 82 0
-26 58 -33 0
-34 -42 -84 0
-45 -43 60 0
44 -29 64 0
77 24 64 0
-2 -68 -95 0
-21 17 59 0
20 11 -71 0
-61 -35 13 0
83 -31 -14 0
98 -42 -7 0
93 65 99 0
79 63 95 0
-27 94 48 0
-93 89 -91 0
55 -4 -11 0
88 95 72 0
10 -16 -1 0
-86 10 76 0
-22 48 82 0
4 37 55 0
82 -61 -24 0
28 3 -82 0
-79 -72 94 0
74 89 -51 0
-25 -31 63 0
78 20 -26 0
-78 -61 -98 0
-65 58 86 0
-86 68 -22 0
-17 -91 66 0
-100 -27 -58 0
91 86 54 0
88 -81 -22 0
-87 -77 96 0
68 -63 -91 0
29 -37 -78 0
-86 85 -53 0
-84 -94 -43 0
73 87 18 0
-17 -21 -11 0
60 -36 71 0
-61 90 -24 0
33 99 -68 0
-52 80 49 0
54 62 -23 0
-83 4 8 0
49 -51 82 0
48 -23 -65 0
-50 21 -66 0
20 -69 78 0
44 46 -77 0
95 -12 -71 0
-17 -67 42 0
-5 61 71 0
-20 -12 -60 0
28 74 68 0
-90 -53 -19 0
64 -32 11 0
22 -67 66 0
25 -74 -80 0
-49 -70 5 0
17 -6 71 0
-23 -97 -29 0
-97 42 80 0
56 18 -97 0
13 -78 5 0
54 1 46 0
11 21 -96 0
-48 -32 -24 0
59 -14 -35 0
23 -72 83 0
17 93 -99 0
48 83 5 0
-38 34 -42 0
-93 -38 82 0
90 29 13 0
-46 74 -49 0
60 -2 72 0
-9 -30 -49 0
x 2 -3 -5 7 -10 11 12 -14 16 17 23 -24 -25 -27 30 -33 -34 41 -44 -45 46 -48 -49 -51 -52 -55 -57 61 63 65 66 67 71 -75 76 77 78 80 -83 -84 -88 91 92 97 -98 99 0
x -2 -3 6 -7 -9 10 -11 16 -17 -20 -21 -22 -25 -26 29 30 -34 37 -38 39 -45 -46 -47 -49 -50 52 -56 -58 61 -65 71 73 78 -79 -81 -82 -83 -84 -85 86 90 -93 98 100 0
x 2 3 -5 -6 -8 9 11 -12 17 18 -20 -23 -25 33 -34 35 39 40 42 43 49 -50 51 53 54 59 61 62 -63 -65 66 68 -69 70 71 73 -78 79 -83 84 -91 92 93 95 97 -98 -99 -100 0
x -1 2 -4 6 -8 -12 -14 15 -17 18 19 22 25 27 33 -35 -38 -41 -43 -44 45 -48 49 51 53 -55 58 59 60 -63 -64 -65 -66 67 -68 -69 72 -73 -74 75 76 77 78 -79 -81 -83 84 85 -88 -89 94 99 0
x 1 2 3 5 -7 -8 12 13 -15 16 17 -18 20 23 27 29 -35 36 37 38 40 41 42 -44 46 -47 -48 -50 51 52 55 56 -57 58 -61 62 -63 64 -66 -67 -70 76 78 -81 82 83 -84 -85 87 -88 -89 90 91 92 -95 98 -100 0
x -2 -3 6 -7 9 10 15 17 -19 -21 22 24 -26 27 30 -31 32 33 -34 -38 39 -40 -41 -42 43 44 48 49 50 -57 58 -59 61 -62 63 -69 -73 -75 -77 -78 79 -80 81 -82 -83 -84 85 86 -89 92 93 -94 95 -99 100 0
x -4 -6 -8 -10 -12 -14 -16 20 21 -22 26 -28 -29 30 -31 -32 -33 -34 36 37 39 40 -41 -42 -46 -47 -48 -49 -51 52 53 -54 55 -57 61 -62 63 65 67 -68 -71 74 -75 -78 -79 -80 81 -82 -83 -84 86 87 89 91 -93 94 95 97 0
x 3 4 7 11 -13 14 -18 -20 -23 24 27 -28 -29 -30 31 -32 -33 35 -36 -38 -39 -42 43 -44 -45 -46 -49 50 52 53 54 -55 62 63 -66 -71 -73 75 76 78 79 -80 81 -83 -85 -86 -87 -88 90 -91 93 95 0
x 1 2 4 -7 12 -13 -18 -21 -22 -23 -26 -27 29 30 -33 -34 35 39 43 44 -47 -48 -50 53 54 -56 58 59 -61 -62 63 -64 -65 67 -73 75 -76 -78 79 -80 -81 83 -86 -87 -88 -89 90 94 96 97 99 100 0
x 1 -2 -3 -4 -8 -9 -12 -15 16 -19 23 -24 -25 -27 32 33 -36 37 38 -40 41 42 -44 -45 46 50 -51 53 54 56 59 60 63 64 66 69 70 -74 -75 -77 80 -81 82 -85 87 88 91 -94 95 96 97 98 -100 0
x -1 -5 -6 9 -10 11 12 -14 -15 17 20 -21 -22 23 26 27 32 33 -36 -37 -39 40 42 44 46 -48 -50 -51 -53 54 -55 -56 59 -60 61 62 63 64 65 -70 74 77 -78 80 81 82 83 85 -87 -89 90 -92 -93 95 -97 0
x 3 -6 -13 15 16 -17 -18 -20 -26 -27 28 32 33 -35 -38 -39 41 -42 -43 -45 46 -49 -50 -51 -53 57 -59 -62 63 -66 67 71 -72 -78 -79 80 81 83 -84 85 86 -87 -90 -91 -92 -93 -94 -96 98 -99 0
x -1 2 3 4 5 6 -7 -10 -14 -15 20 -24 -25 -29 -30 32 -34 37 -38 40 -43 45 -48 -49 52 -53 55 -57 58 60 63 -69 72 -74 -78 84 85 -88 -89 90 91 92 93 -97 -98 -99 -100 0
x 4 -6 7 -9 -10 12 -14 15 17 -18 21 -23 -24 -26 -27 -29 30 -31 -33 -35 -36 -37 38 39 -42 43 44 -49 -50 51 -56 59 60 61 -64 -65 66 -67 -69 -75 78 -79 80 -82 -83 -84 86 88 -89 -91 -94 -95 97 -99 100 0
x -1 2 -3 5 8 11 -14 15 16 -18 20 -25 27 28 32 34 -37 -43 46 -47 49 -50 51 53 54 -56 -57 -59 -62 66 -67 69 -71 72 -75 78 79 -82 83 -86 87 -89 -90 91 92 93 94 -98 -99 -100 0
x 3 -4 7 -10 12 -13 -14 16 18 -19 -20 -22 -26 -28 -30 31 33 34 35 36 43 44 -46 47 -48 51 55 -57 -58 59 -64 66 -67 68 70 73 74 -75 77 -81 -82 -84 -85 -87 -95 -97 0
x -1 -3 4 10 -13 -21 -22 -24 27 29 34 35 -38 -39 -42 43 -44 -46 47 -48 49 52 -55 -57 -59 60 -62 64 -66 67 68 -69 72 -73 -74 -75 76 78 -79 -82 83 -88 92 93 94 97 99 100 0
x 2 -4 5 6 -8 14 16 -19 -20 -21 23 -24 25 28 -29 31 -34 36 37 39 -41 43 44 -46 -48 49 50 -51 55 56 60 -63 65 69 -70 71 72 76 78 79 -80 81 -82 -83 -84 -91 -93 94 95 96 97 98 0
x 1 -2 -3 -4 6 -8 10 16 -17 19 -23 24 30 -32 -36 -37 -43 44 45 -46 -49 -53 -55 59 60 61 -65 66 -67 -68 -70 -74 77 -81 82 83 -84 -85 -87 -88 91 96 99 -100 0
x 1 3 6 9 -11 12 13 -16 -18 -19 21 22 -26 27 29 -30 31 -33 35 -36 -37 -38 39 -40 -41 42 43 -46 47 49 -51 52 -54 -55 -56 57 58 60 -61 -62 -68 -71 -72 73 77 -79 -80 83 84 -85 87 88 91 93 99 0
x -1 -2 3 -6 7 8 9 -10 -11 -13 14 -16 20 21 -25 -26 27 28 -30 31 34 35 36 -41 49 51 -52 -53 -54 -56 60 61 62 -64 66 70 72 -75 -76 -78 79 -80 81 84 85 -86 -88 -90 -93 -94 95 -96 97 -98 0
x 4 -9 10 -12 -14 -15 16 17 -18 19 21 24 29 30 31 32 33 -34 -35 -37 38 40 42 -43 44 45 47 49 -50 -54 58 59 60 -62 64 -65 -66 67 70 73 -78 -79 -81 82 -84 86 87 90 -92 -98 -100 0
x -6 9 12 -14 15 16 -17 -18 22 24 -25 -26 27 31 33 -34 -35 -36 -37 -41 -43 -44 45 46 -47 48 49 -50 53 54 -56 -57 58 -60 -61 -62 -66 67 -68 69 70 -71 72 77 -79 -81 82 -85 -88 89 91 92 -95 -98 0
x -1 -7 8 9 -10 14 -15 -16 17 20 22 -24 -25 -26 28 29 -31 -39 41 42 46 -48 -50 52 54 -56 -57 58 60 -62 63 64 66 -68 -70 -71 -76 78 80 -82 84 -85 89 90 -91 93 94 -96 -98 -99 100 0
x 3 -6 7 -8 -9 10 -13 14 16 -17 18 -20 -22 -26 27 -30 32 -33 -34 -36 -39 41 46 -48 50 -52 53 55 56 -61 -63 -64 65 66 -67 -70 73 -74 -75 -78 -80 82 83 87 -88 90 -92 -95 -96 -97 -99 -100 0
x -1 -2 -4 -7 8 9 10 12 13 15 18 -19 22 24 25 26 27 28 -29 -30 32 33 34 36 37 -40 41 -42 -44 45 46 50 -51 -53 56 -57 -58 62 66 68 -71 72 -73 -74 -78 -80 81 -82 83 84 85 -88 -91 -95 -96 -100 0
x -1 -3 4 5 -6 -8 9 11 14 -17 -18 19 -26 27 -28 -30 31 -33 34 38 39 43 -46 -48 49 50 -51 -53 -54 57 -59 -60 -63 64 -66 -68 -69 -74 -77 78 80 -81 82 -83 84 86 87 88 -90 -92 -93 94 95 -96 -98 0
x 1 6 9 11 12 -15 16 -20 -21 -22 -26 -27 28 -32 34 -39 -40 -41 -43 -44 -45 -46 -47 -48 49 -51 -52 -53 56 -58 60 61 62 63 67 -68 69 -72 75 -76 -79 -80 -83 -86 88 89 91 -94 -100 0
x -1 -3 -6 -8 -9 -11 13 -14 -15 16 20 22 24 29 -30 32 -38 39 -43 45 46 -52 54 -57 59 -63 -65 -66 70 72 -74 -75 76 -77 -78 -80 84 -86 89 90 93 -94 97 98 -99 -100 0
x 11 -14 -15 -16 17 -18 20 -21 -22 24 -25 27 -29 30 33 34 41 43 47 -49 51 52 53 -55 56 -58 -60 61 62 -63 -65 67 -68 -69 74 76 -78 -79 82 83 -85 86 -87 90 92 93 98 100 0
x -3 4 -5 -6 -7 -8 12 16 17 19 20 -22 -23 29 30 -32 34 37 40 -41 -43 -46 -49 50 -51 -52 -53 54 55 -58 -63 -66 71 72 73 -74 75 -80 -81 82 -84 -88 -90 91 -93 95 -96 97 -100 0
x 1 2 -3 -4 5 -6 -7 8 9 10 -11 12 -13 15 16 -17 19 -23 27 28 -30 31 -32 34 35 36 37 39 41 -42 44 -46 49 -52 55 56 -59 60 -61 -62 63 66 -67 69 -71 -75 76 77 -79 81 -85 90 -93 94 96 -99 0
x 1 4 5 -6 -8 9 10 -11 -12 -14 -15 -17 18 20 21 22 -25 28 -30 -32 33 38 -40 -44 -46 48 -50 -51 -53 54 -56 57 60 61 66 67 68 73 74 76 81 82 83 85 -86 -87 -88 89 -91 -92 94 -96 -97 98 99 100 0
x 1 -3 -5 8 9 13 -16 -17 18 -19 -21 23 -24 25 -26 -30 -31 33 34 35 36 40 -42 43 -44 -48 -50 51 53 55 56 59 60 61 -63 -65 -66 73 -75 -77 88 -89 91 93 -95 -96 0
x -1 4 6 -11 -12 -13 -14 -16 18 25 27 -28 -31 32 34 35 -37 38 42 47 -48 51 53 -55 60 -61 62 66 -68 -69 -70 -72 -73 -74 75 -76 77 78 80 82 84 88 90 91 95 96 -97 -98 99 0
x -2 -4 5 6 -7 8 -10 11 -12 14 16 -17 -19 -21 25 27 -28 -35 -36 -41 -42 -44 45 -47 48 -49 50 -51 -52 54 57 58 -62 63 67 69 -73 74 75 76 80 -81 82 83 -85 -90 91 93 -95 -97 98 -100 0
x 2 4 -6 -7 -8 -9 -10 11 -13 14 -15 16 18 20 23 24 -30 32 33 35 -36 37 45 -46 -49 50 -51 52 54 -56 62 63 -64 67 69 -70 73 -75 -78 83 87 88 -89 -90 91 94 96 -97 -98 -100 0
x -2 -3 4 -6 -14 -16 -17 18 -22 25 -26 -27 -28 -29 -33 35 -36 41 -43 44 46 50 -51 53 -54 -56 58 60 63 66 67 69 70 -73 74 -75 76 -77 79 81 82 -83 84 88 91 -94 95 96 97 100 0
x 4 -5 -7 9 -11 12 -16 17 20 22 -23 -24 25 -29 31 34 35 36 43 -45 -48 49 -50 51 52 53 -54 55 -56 -59 -62 -67 -70 -72 -73 -74 -78 82 -84 -85 86 89 91 -92 98 -100 0
x -1 3 6 -7 -11 -13 -15 -17 18 -19 21 -24 28 -30 -31 35 36 -37 -38 -40 41 44 -48 -49 51 53 -55 -59 60 61 65 66 -68 -72 -74 76 -77 78 -79 -81 -83 -84 86 88 89 92 94 -96 -99 0
